
Gurobi 7.5.2 (linux64) logging started Sun Jun 10 23:44:58 2018

Academic license - for non-commercial use only
Warning for adding constraints: zero or small (< 1e-13) coefficients, ignored
Optimize a model with 85 rows, 390 columns and 4161 nonzeros
Variable types: 0 continuous, 390 integer (390 binary)
Coefficient statistics:
  Matrix range     [1e+00, 2e+01]
  Objective range  [1e+02, 4e+03]
  Bounds range     [1e+00, 1e+00]
  RHS range        [1e+00, 2e+01]
Found heuristic solution: objective 9527.5680028
Presolve removed 18 rows and 20 columns
Presolve time: 0.02s
Presolved: 67 rows, 370 columns, 3971 nonzeros
Found heuristic solution: objective 10522.952281
Variable types: 0 continuous, 370 integer (370 binary)

Root relaxation: objective 1.081732e+04, 301 iterations, 0.01 seconds

    Nodes    |    Current Node    |     Objective Bounds      |     Work
 Expl Unexpl |  Obj  Depth IntInf | Incumbent    BestBd   Gap | It/Node Time

     0     0 10817.3151    0   59 10522.9523 10817.3151  2.80%     -    0s
     0     0 10685.9575    0   55 10522.9523 10685.9575  1.55%     -    0s
     0     0     cutoff    0      10522.9523 10522.9523  0.00%     -    0s

Explored 1 nodes (614 simplex iterations) in 0.16 seconds
Thread count was 8 (of 8 available processors)

Solution count 3: 10523 9527.57 7493.1 

Optimal solution found (tolerance 1.00e-04)
Best objective 1.052295228135e+04, best bound 1.052295228135e+04, gap 0.0000%

Gurobi 7.5.2 (linux64) logging started Sun Jun 10 23:46:33 2018

Academic license - for non-commercial use only
Warning for adding constraints: zero or small (< 1e-13) coefficients, ignored
Optimize a model with 85 rows, 212 columns and 1996 nonzeros
Variable types: 0 continuous, 212 integer (212 binary)
Coefficient statistics:
  Matrix range     [1e+00, 2e+01]
  Objective range  [4e+00, 4e+03]
  Bounds range     [1e+00, 1e+00]
  RHS range        [1e+00, 2e+01]
Found heuristic solution: objective 9527.5680028
Presolve removed 22 rows and 19 columns
Presolve time: 0.01s
Presolved: 63 rows, 193 columns, 2002 nonzeros
Found heuristic solution: objective 9015.4671606
Variable types: 0 continuous, 193 integer (193 binary)

Root relaxation: objective 1.043048e+04, 112 iterations, 0.00 seconds

    Nodes    |    Current Node    |     Objective Bounds      |     Work
 Expl Unexpl |  Obj  Depth IntInf | Incumbent    BestBd   Gap | It/Node Time

     0     0 10430.4773    0    8 9527.56800 10430.4773  9.48%     -    0s
H    0     0                    10114.446083 10430.4773  3.12%     -    0s
H    0     0                    10224.274535 10430.4773  2.02%     -    0s
H    0     0                    10340.571827 10430.4773  0.87%     -    0s
H    0     0                    10398.587475 10430.4773  0.31%     -    0s
H    0     0                    10425.700218 10430.4773  0.05%     -    0s

Cutting planes:
  Clique: 1

Explored 1 nodes (112 simplex iterations) in 0.02 seconds
Thread count was 8 (of 8 available processors)

Solution count 8: 10425.7 10398.6 10340.6 ... 7994.34

Optimal solution found (tolerance 1.00e-04)
Best objective 1.042570021789e+04, best bound 1.042570021789e+04, gap 0.0000%

Gurobi 7.5.2 (linux64) logging started Sun Jun 10 23:48:08 2018

Academic license - for non-commercial use only
Warning for adding constraints: zero or small (< 1e-13) coefficients, ignored
Optimize a model with 85 rows, 205 columns and 2083 nonzeros
Variable types: 0 continuous, 205 integer (205 binary)
Coefficient statistics:
  Matrix range     [1e+00, 2e+01]
  Objective range  [4e+00, 4e+03]
  Bounds range     [1e+00, 1e+00]
  RHS range        [1e+00, 2e+01]
Found heuristic solution: objective 9527.5680028
Presolve removed 19 rows and 15 columns
Presolve time: 0.02s
Presolved: 66 rows, 190 columns, 2071 nonzeros
Variable types: 0 continuous, 190 integer (190 binary)

Root relaxation: objective 1.066222e+04, 164 iterations, 0.00 seconds

    Nodes    |    Current Node    |     Objective Bounds      |     Work
 Expl Unexpl |  Obj  Depth IntInf | Incumbent    BestBd   Gap | It/Node Time

     0     0 10662.2174    0   53 9527.56800 10662.2174  11.9%     -    0s
H    0     0                    10561.859925 10662.2174  0.95%     -    0s
H    0     0                    10567.568962 10662.2174  0.90%     -    0s
     0     0     cutoff    0      10567.5690 10567.5690  0.00%     -    0s

Cutting planes:
  Clique: 15

Explored 1 nodes (188 simplex iterations) in 0.04 seconds
Thread count was 8 (of 8 available processors)

Solution count 3: 10567.6 10561.9 9527.57 

Optimal solution found (tolerance 1.00e-04)
Best objective 1.056756896155e+04, best bound 1.056756896155e+04, gap 0.0000%

Gurobi 7.5.2 (linux64) logging started Sun Jun 10 23:52:09 2018

Academic license - for non-commercial use only
Warning for adding constraints: zero or small (< 1e-13) coefficients, ignored
Optimize a model with 85 rows, 252 columns and 2583 nonzeros
Variable types: 0 continuous, 252 integer (252 binary)
Coefficient statistics:
  Matrix range     [1e+00, 2e+01]
  Objective range  [3e+01, 4e+03]
  Bounds range     [1e+00, 1e+00]
  RHS range        [1e+00, 2e+01]
Found heuristic solution: objective 9527.5680028
Presolve removed 19 rows and 18 columns
Presolve time: 0.01s
Presolved: 66 rows, 234 columns, 2531 nonzeros
Variable types: 0 continuous, 234 integer (234 binary)

Root relaxation: objective 1.066222e+04, 244 iterations, 0.01 seconds

    Nodes    |    Current Node    |     Objective Bounds      |     Work
 Expl Unexpl |  Obj  Depth IntInf | Incumbent    BestBd   Gap | It/Node Time

     0     0 10662.2166    0   50 9527.56800 10662.2166  11.9%     -    0s
H    0     0                    10427.701738 10662.2166  2.25%     -    0s
     0     0 10555.4105    0   13 10427.7017 10555.4105  1.22%     -    0s

Cutting planes:
  Clique: 7
  MIR: 1
  GUB cover: 1

Explored 1 nodes (319 simplex iterations) in 0.06 seconds
Thread count was 8 (of 8 available processors)

Solution count 2: 10427.7 9527.57 

Optimal solution found (tolerance 1.00e-04)
Best objective 1.042770173831e+04, best bound 1.042770173831e+04, gap 0.0000%

Gurobi 7.5.2 (linux64) logging started Sun Jun 10 23:54:25 2018

Academic license - for non-commercial use only
Warning for adding constraints: zero or small (< 1e-13) coefficients, ignored
Optimize a model with 85 rows, 332 columns and 3003 nonzeros
Variable types: 0 continuous, 332 integer (332 binary)
Coefficient statistics:
  Matrix range     [1e+00, 2e+01]
  Objective range  [7e+01, 4e+03]
  Bounds range     [1e+00, 1e+00]
  RHS range        [1e+00, 2e+01]
Found heuristic solution: objective 9527.5680028
Presolve removed 19 rows and 25 columns
Presolve time: 0.01s
Presolved: 66 rows, 307 columns, 2840 nonzeros
Found heuristic solution: objective 10468.851753
Variable types: 0 continuous, 307 integer (307 binary)

Root relaxation: objective 1.061825e+04, 204 iterations, 0.00 seconds

    Nodes    |    Current Node    |     Objective Bounds      |     Work
 Expl Unexpl |  Obj  Depth IntInf | Incumbent    BestBd   Gap | It/Node Time

     0     0 10618.2505    0   49 10468.8518 10618.2505  1.43%     -    0s
H    0     0                    10488.245377 10618.2505  1.24%     -    0s
     0     0 10500.8825    0   30 10488.2454 10500.8825  0.12%     -    0s

Cutting planes:
  Clique: 5

Explored 1 nodes (317 simplex iterations) in 0.05 seconds
Thread count was 8 (of 8 available processors)

Solution count 4: 10488.2 10468.9 9527.57 7493.1 

Optimal solution found (tolerance 1.00e-04)
Best objective 1.048824537700e+04, best bound 1.048824537700e+04, gap 0.0000%

Gurobi 7.5.2 (linux64) logging started Mon Jun 11 01:24:53 2018

Academic license - for non-commercial use only
Warning for adding constraints: zero or small (< 1e-13) coefficients, ignored
Optimize a model with 85 rows, 329 columns and 3319 nonzeros
Variable types: 0 continuous, 329 integer (329 binary)
Coefficient statistics:
  Matrix range     [1e+00, 2e+01]
  Objective range  [2e+01, 4e+03]
  Bounds range     [1e+00, 1e+00]
  RHS range        [1e+00, 2e+01]
Found heuristic solution: objective 9527.5680028
Presolve removed 17 rows and 19 columns
Presolve time: 0.01s
Presolved: 68 rows, 310 columns, 3258 nonzeros
Found heuristic solution: objective 10305.154391
Variable types: 0 continuous, 310 integer (310 binary)

Root relaxation: objective 1.077937e+04, 215 iterations, 0.01 seconds

    Nodes    |    Current Node    |     Objective Bounds      |     Work
 Expl Unexpl |  Obj  Depth IntInf | Incumbent    BestBd   Gap | It/Node Time

     0     0 10779.3719    0   51 10305.1544 10779.3719  4.60%     -    0s
     0     0 10622.5024    0   65 10305.1544 10622.5024  3.08%     -    0s
     0     0 10590.1761    0   65 10305.1544 10590.1761  2.77%     -    0s
     0     0 10587.2518    0   62 10305.1544 10587.2518  2.74%     -    0s
     0     0 10587.0519    0   59 10305.1544 10587.0519  2.74%     -    0s
     0     0 10527.1119    0   70 10305.1544 10527.1119  2.15%     -    0s
     0     0 10506.2417    0   72 10305.1544 10506.2417  1.95%     -    0s
     0     0 10502.0743    0   73 10305.1544 10502.0743  1.91%     -    0s
     0     0 10498.0030    0   75 10305.1544 10498.0030  1.87%     -    0s
     0     0 10497.7715    0   74 10305.1544 10497.7715  1.87%     -    0s
     0     0 10466.0644    0   75 10305.1544 10466.0644  1.56%     -    0s
     0     0 10466.0644    0   34 10305.1544 10466.0644  1.56%     -    0s
     0     0 10456.2807    0   41 10305.1544 10456.2807  1.47%     -    0s
     0     0 10354.6348    0   35 10305.1544 10354.6348  0.48%     -    0s
     0     0 10346.8143    0   22 10305.1544 10346.8143  0.40%     -    0s
     0     0     cutoff    0      10305.1544 10305.1544  0.00%     -    0s

Cutting planes:
  Clique: 15
  MIR: 1
  Zero half: 2

Explored 1 nodes (1069 simplex iterations) in 0.18 seconds
Thread count was 8 (of 8 available processors)

Solution count 3: 10305.2 9527.57 7089.35 

Optimal solution found (tolerance 1.00e-04)
Best objective 1.030515439135e+04, best bound 1.030515439135e+04, gap 0.0000%

Gurobi 7.5.2 (linux64) logging started Mon Jun 11 01:27:44 2018

Academic license - for non-commercial use only
Warning for adding constraints: zero or small (< 1e-13) coefficients, ignored
Optimize a model with 85 rows, 334 columns and 3161 nonzeros
Variable types: 0 continuous, 334 integer (334 binary)
Coefficient statistics:
  Matrix range     [1e+00, 2e+01]
  Objective range  [7e+01, 4e+03]
  Bounds range     [1e+00, 1e+00]
  RHS range        [1e+00, 2e+01]
Found heuristic solution: objective 9527.5680028
Presolve removed 20 rows and 16 columns
Presolve time: 0.01s
Presolved: 65 rows, 318 columns, 3007 nonzeros
Found heuristic solution: objective 9758.4093422
Variable types: 0 continuous, 318 integer (318 binary)

Root relaxation: objective 1.077381e+04, 213 iterations, 0.01 seconds

    Nodes    |    Current Node    |     Objective Bounds      |     Work
 Expl Unexpl |  Obj  Depth IntInf | Incumbent    BestBd   Gap | It/Node Time

     0     0 10773.8109    0   51 9758.40934 10773.8109  10.4%     -    0s
H    0     0                    10186.983017 10773.8109  5.76%     -    0s
H    0     0                    10284.477252 10773.8109  4.76%     -    0s
H    0     0                    10288.762536 10691.8610  3.92%     -    0s
     0     0 10681.2196    0   47 10288.7625 10681.2196  3.81%     -    0s
     0     0 10648.1917    0   48 10288.7625 10648.1917  3.49%     -    0s
     0     0 10648.1917    0   50 10288.7625 10648.1917  3.49%     -    0s
H    0     0                    10429.778701 10648.1917  2.09%     -    0s
     0     0 10648.1917    0   50 10429.7787 10648.1917  2.09%     -    0s
     0     0 10648.1917    0   53 10429.7787 10648.1917  2.09%     -    0s
     0     0 10648.1917    0   50 10429.7787 10648.1917  2.09%     -    0s
     0     0 10648.1917    0   51 10429.7787 10648.1917  2.09%     -    0s
     0     0 10648.1917    0   53 10429.7787 10648.1917  2.09%     -    0s
     0     0 10462.0788    0   55 10429.7787 10462.0788  0.31%     -    0s
     0     0 10462.0788    0   22 10429.7787 10462.0788  0.31%     -    0s
     0     0 10462.0788    0   25 10429.7787 10462.0788  0.31%     -    0s

Cutting planes:
  Gomory: 1
  Clique: 4

Explored 1 nodes (605 simplex iterations) in 0.14 seconds
Thread count was 8 (of 8 available processors)

Solution count 7: 10429.8 10288.8 10284.5 ... 7770.41

Optimal solution found (tolerance 1.00e-04)
Best objective 1.042977870052e+04, best bound 1.042977870052e+04, gap 0.0000%

Gurobi 7.5.2 (linux64) logging started Mon Jun 11 01:31:42 2018

Academic license - for non-commercial use only
Warning for adding constraints: zero or small (< 1e-13) coefficients, ignored
Optimize a model with 85 rows, 305 columns and 3101 nonzeros
Variable types: 0 continuous, 305 integer (305 binary)
Coefficient statistics:
  Matrix range     [1e+00, 2e+01]
  Objective range  [4e-01, 4e+03]
  Bounds range     [1e+00, 1e+00]
  RHS range        [1e+00, 2e+01]
Found heuristic solution: objective 9527.5680028
Presolve removed 17 rows and 17 columns
Presolve time: 0.01s
Presolved: 68 rows, 288 columns, 3132 nonzeros
Found heuristic solution: objective 10228.296242
Variable types: 0 continuous, 288 integer (288 binary)

Root relaxation: objective 1.058991e+04, 235 iterations, 0.01 seconds

    Nodes    |    Current Node    |     Objective Bounds      |     Work
 Expl Unexpl |  Obj  Depth IntInf | Incumbent    BestBd   Gap | It/Node Time

     0     0 10589.9077    0   57 10228.2962 10589.9077  3.54%     -    0s
H    0     0                    10316.230766 10589.9077  2.65%     -    0s
     0     0 10440.3857    0    9 10316.2308 10440.3857  1.20%     -    0s
*    0     0               0    10371.055334 10371.0553  0.00%     -    0s

Explored 1 nodes (388 simplex iterations) in 0.09 seconds
Thread count was 8 (of 8 available processors)

Solution count 5: 10371.1 10316.2 10228.3 ... 8846.5

Optimal solution found (tolerance 1.00e-04)
Best objective 1.037105533420e+04, best bound 1.037105533420e+04, gap 0.0000%

Gurobi 7.5.2 (linux64) logging started Mon Jun 11 01:35:25 2018

Academic license - for non-commercial use only
Warning for adding constraints: zero or small (< 1e-13) coefficients, ignored
Optimize a model with 85 rows, 358 columns and 3544 nonzeros
Variable types: 0 continuous, 358 integer (358 binary)
Coefficient statistics:
  Matrix range     [1e+00, 2e+01]
  Objective range  [7e+01, 4e+03]
  Bounds range     [1e+00, 1e+00]
  RHS range        [1e+00, 2e+01]
Found heuristic solution: objective 9527.5680028
Presolve removed 18 rows and 15 columns
Presolve time: 0.01s
Presolved: 67 rows, 343 columns, 3467 nonzeros
Found heuristic solution: objective 9790.4382132
Variable types: 0 continuous, 343 integer (343 binary)

Root relaxation: objective 1.079250e+04, 261 iterations, 0.01 seconds

    Nodes    |    Current Node    |     Objective Bounds      |     Work
 Expl Unexpl |  Obj  Depth IntInf | Incumbent    BestBd   Gap | It/Node Time

     0     0 10792.5000    0   56 9790.43821 10792.5000  10.2%     -    0s
     0     0 10680.1279    0   73 9790.43821 10680.1279  9.09%     -    0s
H    0     0                    10537.468053 10680.1279  1.35%     -    0s
     0     0 10661.7899    0   75 10537.4681 10661.7899  1.18%     -    0s
     0     0 10631.9740    0   71 10537.4681 10631.9740  0.90%     -    0s
     0     0 10618.5817    0   70 10537.4681 10618.5817  0.77%     -    0s
     0     0 10612.3901    0   70 10537.4681 10612.3901  0.71%     -    0s
     0     0 10610.2433    0   69 10537.4681 10610.2433  0.69%     -    0s
     0     0 10609.8811    0   68 10537.4681 10609.8811  0.69%     -    0s
     0     0 10609.5045    0   69 10537.4681 10609.5045  0.68%     -    0s
     0     0 10608.6683    0   70 10537.4681 10608.6683  0.68%     -    0s
     0     0 10608.1819    0   68 10537.4681 10608.1819  0.67%     -    0s
     0     0     cutoff    0      10537.4681 10537.4681  0.00%     -    0s

Cutting planes:
  Cover: 1
  Clique: 34
  MIR: 6

Explored 1 nodes (685 simplex iterations) in 0.12 seconds
Thread count was 8 (of 8 available processors)

Solution count 4: 10537.5 9790.44 9527.57 7493.1 

Optimal solution found (tolerance 1.00e-04)
Best objective 1.053746805283e+04, best bound 1.053746805283e+04, gap 0.0000%

Gurobi 7.5.2 (linux64) logging started Mon Jun 11 01:38:33 2018

Academic license - for non-commercial use only
Warning for adding constraints: zero or small (< 1e-13) coefficients, ignored
Optimize a model with 85 rows, 263 columns and 2648 nonzeros
Variable types: 0 continuous, 263 integer (263 binary)
Coefficient statistics:
  Matrix range     [1e+00, 2e+01]
  Objective range  [7e+01, 4e+03]
  Bounds range     [1e+00, 1e+00]
  RHS range        [1e+00, 2e+01]
Found heuristic solution: objective 9527.5680028
Presolve removed 20 rows and 16 columns
Presolve time: 0.01s
Presolved: 65 rows, 247 columns, 2584 nonzeros
Variable types: 0 continuous, 247 integer (247 binary)

Root relaxation: objective 1.054579e+04, 222 iterations, 0.01 seconds

    Nodes    |    Current Node    |     Objective Bounds      |     Work
 Expl Unexpl |  Obj  Depth IntInf | Incumbent    BestBd   Gap | It/Node Time

     0     0 10545.7855    0   56 9527.56800 10545.7855  10.7%     -    0s
H    0     0                    10094.007149 10545.7855  4.48%     -    0s
H    0     0                    10211.467952 10545.7855  3.27%     -    0s
     0     0 10416.6759    0   64 10211.4680 10416.6759  2.01%     -    0s
     0     0 10316.4744    0   57 10211.4680 10316.4744  1.03%     -    0s
     0     0     cutoff    0      10211.4680 10211.4680  0.00%     -    0s

Cutting planes:
  Clique: 16

Explored 1 nodes (560 simplex iterations) in 0.07 seconds
Thread count was 8 (of 8 available processors)

Solution count 3: 10211.5 10094 9527.57 

Optimal solution found (tolerance 1.00e-04)
Best objective 1.021146795229e+04, best bound 1.021146795229e+04, gap 0.0000%

Gurobi 7.5.2 (linux64) logging started Mon Jun 11 01:41:34 2018

Academic license - for non-commercial use only
Warning for adding constraints: zero or small (< 1e-13) coefficients, ignored
Optimize a model with 85 rows, 340 columns and 3374 nonzeros
Variable types: 0 continuous, 340 integer (340 binary)
Coefficient statistics:
  Matrix range     [1e+00, 2e+01]
  Objective range  [3e+01, 4e+03]
  Bounds range     [1e+00, 1e+00]
  RHS range        [1e+00, 2e+01]
Found heuristic solution: objective 9527.5680028
Presolve removed 18 rows and 17 columns
Presolve time: 0.01s
Presolved: 67 rows, 323 columns, 3300 nonzeros
Found heuristic solution: objective 9593.6720736
Variable types: 0 continuous, 323 integer (323 binary)

Root relaxation: objective 1.079708e+04, 237 iterations, 0.01 seconds

    Nodes    |    Current Node    |     Objective Bounds      |     Work
 Expl Unexpl |  Obj  Depth IntInf | Incumbent    BestBd   Gap | It/Node Time

     0     0 10797.0757    0   57 9593.67207 10797.0757  12.5%     -    0s
H    0     0                    9635.5279711 10797.0757  12.1%     -    0s
H    0     0                    10235.016882 10797.0757  5.49%     -    0s
     0     0 10680.1712    0   70 10235.0169 10680.1712  4.35%     -    0s
H    0     0                    10462.907450 10680.1712  2.08%     -    0s
     0     0 10656.8700    0   73 10462.9075 10656.8700  1.85%     -    0s
     0     0 10649.3016    0   70 10462.9075 10649.3016  1.78%     -    0s
     0     0 10579.8340    0   76 10462.9075 10579.8340  1.12%     -    0s
H    0     0                    10526.050881 10579.8340  0.51%     -    0s
     0     0     cutoff    0      10526.0509 10526.0509  0.00%     -    0s

Explored 1 nodes (721 simplex iterations) in 0.16 seconds
Thread count was 8 (of 8 available processors)

Solution count 7: 10526.1 10462.9 10235 ... 7493.1

Optimal solution found (tolerance 1.00e-04)
Best objective 1.052605088067e+04, best bound 1.052605088067e+04, gap 0.0000%

Gurobi 7.5.2 (linux64) logging started Mon Jun 11 01:46:04 2018

Academic license - for non-commercial use only
Warning for adding constraints: zero or small (< 1e-13) coefficients, ignored
Optimize a model with 85 rows, 360 columns and 3679 nonzeros
Variable types: 0 continuous, 360 integer (360 binary)
Coefficient statistics:
  Matrix range     [1e+00, 2e+01]
  Objective range  [2e+02, 4e+03]
  Bounds range     [1e+00, 1e+00]
  RHS range        [1e+00, 2e+01]
Found heuristic solution: objective 9527.5680028
Presolve removed 19 rows and 15 columns
Presolve time: 0.02s
Presolved: 66 rows, 345 columns, 3544 nonzeros
Found heuristic solution: objective 9985.0543458
Variable types: 0 continuous, 345 integer (345 binary)

Root relaxation: objective 1.086884e+04, 269 iterations, 0.01 seconds

    Nodes    |    Current Node    |     Objective Bounds      |     Work
 Expl Unexpl |  Obj  Depth IntInf | Incumbent    BestBd   Gap | It/Node Time

     0     0 10868.8394    0   56 9985.05435 10868.8394  8.85%     -    0s
     0     0 10740.4328    0   62 9985.05435 10740.4328  7.57%     -    0s
     0     0 10735.8365    0   67 9985.05435 10735.8365  7.52%     -    0s
     0     0 10734.7905    0   68 9985.05435 10734.7905  7.51%     -    0s
     0     0 10734.3929    0   69 9985.05435 10734.3929  7.50%     -    0s
     0     0 10655.2441    0   84 9985.05435 10655.2441  6.71%     -    0s
     0     0 10652.1922    0   84 9985.05435 10652.1922  6.68%     -    0s
     0     0 10651.8497    0   89 9985.05435 10651.8497  6.68%     -    0s
H    0     0                    10007.089964 10651.8497  6.44%     -    0s
H    0     0                    10178.247957 10651.8497  4.65%     -    0s
     0     0 10605.3890    0   92 10178.2480 10605.3890  4.20%     -    0s
     0     0 10589.5026    0   89 10178.2480 10589.5026  4.04%     -    0s
     0     0 10584.1122    0   94 10178.2480 10584.1122  3.99%     -    0s
     0     0 10582.6183    0   94 10178.2480 10582.6183  3.97%     -    0s
     0     0 10582.2944    0  100 10178.2480 10582.2944  3.97%     -    0s
H    0     0                    10216.527652 10524.9391  3.02%     -    0s
     0     0 10447.9453    0   95 10216.5277 10447.9453  2.27%     -    0s
     0     0 10419.2187    0   96 10216.5277 10419.2187  1.98%     -    0s
     0     0 10419.2187    0   51 10216.5277 10419.2187  1.98%     -    0s
     0     0 10419.2187    0   68 10216.5277 10419.2187  1.98%     -    0s
     0     0 10419.2187    0   77 10216.5277 10419.2187  1.98%     -    0s
     0     0 10419.2187    0   81 10216.5277 10419.2187  1.98%     -    0s
     0     0 10419.2187    0   87 10216.5277 10419.2187  1.98%     -    0s
     0     0 10419.2187    0   89 10216.5277 10419.2187  1.98%     -    0s
     0     0 10419.2187    0   91 10216.5277 10419.2187  1.98%     -    0s
     0     0 10419.2187    0   90 10216.5277 10419.2187  1.98%     -    0s
     0     0 10419.2187    0   48 10216.5277 10419.2187  1.98%     -    0s
     0     0 10419.2187    0   69 10216.5277 10419.2187  1.98%     -    0s
     0     0 10419.2187    0   77 10216.5277 10419.2187  1.98%     -    0s
     0     0 10419.2187    0   70 10216.5277 10419.2187  1.98%     -    0s
     0     0 10419.2187    0   70 10216.5277 10419.2187  1.98%     -    0s
     0     0 10419.2187    0   65 10216.5277 10419.2187  1.98%     -    0s
     0     0 10231.8930    0   74 10216.5277 10231.8930  0.15%     -    0s
     0     0 10231.8930    0   46 10216.5277 10231.8930  0.15%     -    0s
     0     0 10231.8930    0   65 10216.5277 10231.8930  0.15%     -    0s
     0     0 10231.8930    0   70 10216.5277 10231.8930  0.15%     -    0s
     0     0 10231.8930    0   74 10216.5277 10231.8930  0.15%     -    0s
     0     0 10231.8930    0   75 10216.5277 10231.8930  0.15%     -    0s
     0     0 10231.8930    0   73 10216.5277 10231.8930  0.15%     -    0s
     0     0 10231.8930    0   72 10216.5277 10231.8930  0.15%     -    0s
     0     0 10225.1666    0   79 10216.5277 10225.1666  0.08%     -    0s
     0     0 10225.1666    0   72 10216.5277 10225.1666  0.08%     -    0s
     0     2 10225.1666    0   72 10216.5277 10225.1666  0.08%     -    0s

Cutting planes:
  Cover: 1
  Clique: 35
  MIR: 2

Explored 23 nodes (3223 simplex iterations) in 0.85 seconds
Thread count was 8 (of 8 available processors)

Solution count 6: 10216.5 10178.2 10007.1 ... 7994.34

Optimal solution found (tolerance 1.00e-04)
Best objective 1.021652765207e+04, best bound 1.021652765207e+04, gap 0.0000%
